45 36
48 1
65 32
68 6
68 31
10 1
84 37
22 35
37 49
88 30
71 4
89 35
89 43
13 14
59 49
66 40
40 22
88 10
47 1
89 11
82 44
38 24
26 3
78 35
73 36
10 31
21 4
81 19
70 47
80 36
48 21
65 18
83 28
89 15
50 42
30 2
20 37
20 11
15 23
40 44
33 41
66 12
10 3
58 17
33 33
32 1
75 39
24 20
36 47
76 43
56 41
29 14
35 31
1 25
1 3
37 4
54 31
6 35
39 44
18 14
80 49
5 41
43 9
59 20
32 32
2 9
66 27
42 3
58 4
36 45
12 15
47 33
83 5
92 4
1 46
15 12
54 23
13 14
43 46
85 12
76 17
69 25
7 30
69 22
48 47
4 26
77 17
53 20
79 34
16 41
21 33
59 37
24 7
80 22
14 32
86 14
49 8
50 25
70 16
42 42
